n=214;
k_min=7;
k_max=7;
M=[| 166, 144, 145, 125, 139, 132, 145
 | 164, 141, 146, 126, 140, 128, 152
 | 166, 142, 145, 125, 139, 128, 152
 | 165, 144, 145, 125, 138, 130, 149
 | 163, 144, 145, 126, 138, 130, 151
 | 163, 145, 144, 126, 138, 131, 150
 | 163, 144, 145, 125, 137, 130, 151
 | 163, 145, 145, 125, 136, 131, 151
 | 166, 142, 147, 125, 140, 129, 148
 | 164, 145, 145, 125, 137, 131, 150
 | 163, 145, 144, 126, 137, 131, 150
 | 166, 146, 144, 124, 136, 132, 149
 | 162, 145, 144, 126, 137, 131, 151
 | 164, 146, 144, 125, 136, 132, 150
 | 164, 147, 144, 125, 135, 132, 149
 | 164, 146, 144, 125, 136, 132, 150
 | 165, 147, 144, 124, 135, 133, 148
 | 161, 144, 148, 126, 139, 133, 145
 | 162, 145, 148, 124, 138, 132, 148
 | 166, 145, 145, 124, 137, 131, 149
 | 164, 146, 145, 125, 137, 132, 148
 | 159, 144, 149, 126, 138, 133, 148
 | 165, 147, 144, 124, 136, 133, 148
 | 165, 146, 144, 124, 135, 132, 149
 | 165, 145, 146, 124, 136, 131, 150
 | 165, 146, 145, 124, 136, 132, 149
 | 165, 145, 145, 125, 137, 131, 149
 | 165, 146, 145, 124, 136, 131, 150
 | 164, 147, 144, 125, 135, 133, 149
 | 165, 145, 145, 124, 136, 131, 149
 | 165, 147, 144, 124, 135, 133, 148
 | 164, 146, 145, 124, 135, 132, 150
 | 164, 146, 145, 124, 136, 132, 149
 | 163, 147, 144, 125, 135, 133, 150
 | 165, 147, 144, 124, 135, 133, 148
 | 165, 145, 146, 124, 136, 131, 149
 | 163, 144, 148, 125, 139, 131, 146
 | 165, 147, 144, 124, 135, 132, 148
 | 163, 145, 148, 124, 136, 135, 145
 | 163, 145, 148, 124, 136, 135, 145
 | 164, 147, 145, 124, 135, 133, 149
 | 164, 147, 145, 124, 135, 133, 149
 | 166, 145, 146, 124, 136, 131, 149
 | 166, 147, 147, 123, 135, 135, 144
 | 164, 148, 145, 124, 135, 133, 148
 | 164, 146, 147, 124, 137, 132, 146
 | 164, 146, 146, 124, 135, 132, 148
 | 164, 146, 148, 123, 135, 136, 144
 | 163, 150, 147, 123, 134, 137, 143
 | 164, 145, 147, 124, 137, 132, 147
 | 164, 148, 148, 123, 134, 137, 143
 | 163, 148, 147, 124, 135, 134, 146
 | 162, 147, 149, 123, 133, 133, 150
 | 162, 148, 148, 123, 133, 134, 149
 | 162, 148, 148, 122, 133, 134, 150
 | 161, 150, 146, 123, 131, 136, 150
 | 163, 145, 145, 125, 136, 131, 150
 | 165, 146, 145, 125, 136, 131, 149
 | 163, 143, 145, 126, 138, 130, 151
 | 165, 144, 145, 125, 138, 130, 150
 | 162, 145, 147, 123, 136, 132, 149
 | 161, 144, 147, 125, 141, 132, 146
 | 164, 147, 147, 124, 136, 135, 144
 | 163, 145, 148, 124, 137, 135, 144
 | 164, 148, 147, 123, 135, 135, 145
 | 163, 147, 148, 123, 136, 134, 146
 | 161, 150, 147, 123, 133, 137, 144
 | 161, 150, 147, 123, 133, 137, 145
 | 162, 150, 147, 123, 133, 137, 144
 | 162, 150, 148, 122, 133, 138, 143
 | 159, 139, 147, 129, 145, 128, 150
 | 163, 143, 146, 127, 141, 131, 147
 | 163, 143, 144, 127, 139, 130, 151
 | 164, 143, 145, 126, 139, 129, 151
 | 163, 144, 144, 127, 139, 130, 151
 | 163, 144, 144, 127, 138, 130, 151
 | 163, 143, 145, 127, 140, 129, 149
 | 164, 144, 144, 126, 139, 130, 150
 | 163, 142, 146, 125, 139, 129, 152
 | 163, 144, 144, 127, 139, 130, 149
 | 162, 144, 144, 127, 140, 130, 149
 | 164, 143, 145, 126, 138, 129, 152
 | 164, 143, 145, 126, 138, 130, 150
 | 164, 144, 144, 126, 139, 130, 150
 | 158, 138, 145, 132, 146, 127, 151
 | 165, 144, 145, 125, 138, 130, 150
 | 164, 144, 145, 125, 137, 130, 152
 | 164, 143, 145, 126, 139, 129, 150
 | 164, 144, 144, 126, 138, 130, 150
 | 162, 145, 143, 127, 138, 132, 150
 | 166, 147, 145, 124, 136, 133, 145
 | 164, 145, 145, 125, 137, 131, 150
 | 162, 145, 146, 123, 136, 132, 152
 | 163, 144, 146, 124, 137, 130, 152
 | 163, 146, 144, 125, 136, 131, 151
 | 164, 145, 146, 125, 138, 131, 148
 | 165, 148, 145, 124, 135, 134, 146
 | 161, 150, 144, 125, 133, 135, 149
 | 161, 147, 145, 125, 135, 133, 150
 | 163, 147, 147, 123, 134, 133, 149
 | 161, 148, 146, 123, 133, 134, 150
 | 166, 151, 145, 122, 131, 135, 146
 | 159, 151, 147, 122, 130, 137, 150
 | 155, 149, 148, 126, 133, 144, 141
 | 158, 149, 150, 123, 133, 141, 142
 | 146, 153, 142, 125, 123, 166, 141
 | 146, 148, 142, 133, 135, 152, 141
 | 145, 149, 144, 132, 132, 155, 141
 | 148, 166, 154, 117, 120, 144, 147
 | 148, 156, 152, 122, 124, 145, 150
 | 145, 152, 144, 128, 127, 158, 142
 | 145, 152, 144, 129, 128, 158, 142
 | 145, 153, 146, 127, 127, 157, 142
 | 164, 143, 145, 126, 139, 130, 149
 | 163, 145, 144, 126, 139, 132, 148
 | 164, 144, 145, 126, 139, 130, 148
 | 163, 144, 145, 126, 140, 131, 148
 | 162, 141, 145, 128, 143, 129, 148
 | 163, 143, 145, 127, 140, 130, 149
 | 163, 142, 145, 127, 140, 129, 150
 | 164, 144, 145, 126, 139, 131, 148
 | 163, 144, 144, 126, 138, 130, 150
 | 164, 144, 145, 125, 138, 130, 150
 | 163, 142, 145, 126, 140, 129, 150
 | 164, 145, 145, 125, 137, 131, 149
 | 166, 145, 144, 125, 137, 131, 147
 | 164, 146, 145, 124, 136, 132, 148
 | 166, 147, 153, 120, 130, 135, 145
 | 162, 148, 152, 120, 131, 135, 147
 | 158, 153, 156, 118, 126, 140, 147
 | 154, 157, 154, 117, 122, 145, 146
 | 146, 155, 148, 125, 126, 154, 143
 | 163, 143, 145, 127, 140, 130, 149
 | 163, 142, 145, 127, 142, 130, 147
 | 164, 144, 145, 126, 139, 130, 150
 | 163, 145, 145, 126, 139, 131, 147
 | 164, 145, 144, 125, 137, 131, 150
 | 164, 144, 144, 126, 138, 131, 150
 | 162, 144, 144, 127, 138, 131, 151
 | 163, 144, 144, 126, 138, 130, 151
 | 164, 143, 145, 126, 139, 130, 149
 | 164, 145, 145, 125, 137, 131, 149
 | 163, 145, 144, 126, 137, 131, 150
 | 164, 144, 144, 126, 139, 130, 149
 | 163, 147, 146, 123, 134, 133, 149
 | 164, 147, 145, 125, 137, 133, 147
 | 163, 145, 147, 123, 137, 132, 150
 | 166, 144, 145, 124, 137, 130, 149
 | 165, 145, 145, 124, 137, 131, 149
 | 163, 148, 143, 126, 136, 134, 147
 | 164, 144, 145, 125, 138, 131, 148
 | 163, 145, 148, 124, 137, 134, 145
 | 161, 146, 148, 123, 135, 133, 150
 | 165, 144, 146, 125, 137, 130, 150
 | 164, 147, 145, 124, 136, 133, 147
 | 164, 146, 146, 124, 135, 132, 150
 | 165, 145, 147, 124, 136, 131, 149
 | 164, 146, 148, 123, 135, 135, 145
 | 166, 144, 147, 124, 138, 131, 146
 | 165, 145, 147, 124, 138, 131, 146
 | 164, 146, 147, 124, 137, 133, 146
 | 161, 146, 148, 123, 136, 133, 149
 | 161, 144, 148, 126, 139, 133, 145
 | 146, 134, 139, 141, 166, 127, 143
 | 160, 154, 149, 119, 126, 140, 147
 | 152, 166, 144, 119, 123, 150, 142
 | 151, 162, 143, 123, 124, 152, 142
 | 150, 154, 149, 121, 122, 152, 149
 | 152, 150, 149, 124, 124, 144, 153
 | 150, 157, 151, 119, 120, 149, 149
 | 148, 158, 150, 120, 122, 153, 145
 | 141, 136, 138, 166, 144, 133, 139
 | 141, 136, 138, 165, 144, 134, 139
 | 148, 158, 149, 121, 122, 154, 145
 | 166, 149, 148, 120, 129, 137, 147
 | 151, 156, 151, 119, 121, 149, 149
 | 162, 147, 154, 120, 132, 135, 148
 | 160, 149, 153, 119, 130, 136, 148
 | 159, 146, 156, 120, 133, 132, 149
 | 160, 147, 155, 120, 132, 134, 150
 | 153, 141, 149, 125, 134, 129, 166
 | 152, 153, 166, 115, 125, 133, 152
 | 149, 158, 156, 116, 121, 142, 153
 | 148, 161, 154, 119, 122, 143, 149
 | 146, 144, 148, 134, 138, 133, 153
 | 153, 137, 141, 138, 150, 127, 149
 | 151, 136, 142, 138, 157, 127, 146
 | 163, 146, 147, 124, 136, 132, 148
 | 154, 145, 151, 129, 139, 135, 144
 | 150, 143, 150, 129, 145, 131, 149
 | 154, 145, 153, 122, 135, 132, 154
 | 148, 147, 155, 123, 131, 132, 161
 | 149, 146, 153, 121, 128, 133, 166
 | 147, 145, 152, 123, 134, 130, 166
 | 147, 145, 152, 123, 134, 131, 164
 | 149, 147, 153, 121, 129, 133, 165
 | 151, 148, 153, 120, 128, 135, 161
 | 148, 148, 155, 121, 130, 132, 162
 | 149, 147, 155, 121, 130, 133, 163
 | 148, 147, 156, 123, 132, 131, 160
 | 147, 146, 154, 125, 134, 131, 160
 | 148, 146, 144, 137, 132, 141, 148
 | 147, 146, 153, 125, 133, 132, 160
 | 146, 144, 151, 124, 135, 130, 164
 | 147, 147, 155, 123, 132, 131, 160
 | 146, 146, 153, 123, 134, 130, 164
 | 147, 146, 154, 122, 133, 131, 164
 | 144, 139, 145, 138, 146, 131, 153
 | 150, 148, 156, 120, 128, 134, 161
 | 150, 146, 153, 122, 132, 134, 159
 | 146, 145, 152, 124, 135, 130, 165
 | 147, 145, 151, 124, 134, 132, 163
 | 147, 146, 151, 124, 134, 132, 162
 | 148, 145, 151, 123, 134, 132, 162 |];
 P=[1, 1, 1, 1, 1, 1, 1, 1, 1, 1, 1, 1, 1, 1, 1, 1, 1, 1, 1, 1, 1, 1, 1, 1, 1, 1, 1, 1, 1, 1, 1, 1, 1, 1, 1, 1, 1, 1, 1, 1, 1, 1, 1, 1, 1, 1, 1, 1, 1, 1, 1, 1, 1, 1, 1, 1, 1, 1, 1, 1, 1, 1, 1, 1, 1, 1, 1, 1, 1, 1, 1, 1, 1, 1, 1, 1, 1, 1, 1, 1, 1, 1, 1, 1, 1, 1, 1, 1, 1, 1, 1, 1, 1, 1, 1, 1, 1, 1, 1, 1, 1, 1, 1, 1, 1, 6, 6, 6, 2, 2, 6, 6, 6, 1, 1, 1, 1, 1, 1, 1, 1, 1, 1, 1, 1, 1, 1, 1, 1, 1, 2, 6, 1, 1, 1, 1, 1, 1, 1, 1, 1, 1, 1, 1, 1, 1, 1, 1, 1, 1, 1, 1, 1, 1, 1, 1, 1, 1, 1, 1, 1, 1, 1, 5, 1, 2, 2, 2, 2, 2, 2, 4, 4, 2, 1, 2, 1, 1, 1, 1, 7, 3, 2, 2, 7, 5, 5, 1, 1, 1, 3, 7, 7, 7, 7, 7, 7, 7, 7, 7, 7, 2, 7, 7, 7, 7, 7, 7, 7, 7, 7, 7, 7, 7 ];